
 param N:= 10;
 param M:= 10;

 param B_c := 62;

 param B_CPU := 12;

 param B_m := 42;

 param: w cpu m:= 
1 	 27	 2 	 12
2 	 14	 4 	 9
3 	 22	 2 	 20
4 	 1	 3 	 16
5 	 7	 5 	 17
6 	 22	 2 	 5
7 	 20	 1 	 4
8 	 13	 4 	 17
9 	 29	 1 	 11
10 	 25	 2 	 11
;